10J3M/DAT/10J3MULA-6.dat
10 3
16.0566 257.8144
29.6115 876.8409
0.124 0.0154
25.4688 648.6598
15.1923 230.806
0.1286 0.0165
17.0728 291.4805
1.5694 2.463
48.3147 2334.3102
32.3716 1047.9205
1896.7757