10J3M/SOL/10J3MULA-6.sol
solution status: optimal solution found
objective value:                     61.9700993100788
x#1#1                               0.980549490346064 	(obj:0)
x#1#2                              0.0194505096539362 	(obj:0)
x#2#2                                               1 	(obj:0)
x#3#1                                               1 	(obj:0)
x#4#3                                               1 	(obj:0)
x#5#3                                               1 	(obj:0)
x#6#1                                               1 	(obj:0)
x#7#2                                               1 	(obj:0)
x#8#1                                 0.8333199992705 	(obj:0)
x#8#3                                 0.1666800007295 	(obj:0)
x#9#1                               0.254452494924591 	(obj:0)
x#9#2                               0.309915828035141 	(obj:0)
x#9#3                                0.43563163420106 	(obj:0)
x#10#1                                              1 	(obj:0)
z                                    61.9700993100788 	(obj:1)
